c This file is generated by _findSolu
c Generated on Tue Feb 23 16:02:13 2016
p cnf 968 2477
7 19 0
-7 -19 0
8 20 0
-8 -20 0
1 21 0
-1 -21 0
-1 -19 23 0
1 -23 0
19 -23 0
-21 -19 24 0
21 -24 0
19 -24 0
-5 -7 25 0
5 -25 0
7 -25 0
-6 -7 26 0
6 -26 0
7 -26 0
-23 -20 32 0
23 -32 0
20 -32 0
-24 -8 30 0
24 -30 0
8 -30 0
-25 -20 28 0
25 -28 0
20 -28 0
-26 -8 27 0
26 -27 0
8 -27 0
27 28 -29 0
-27 29 0
-28 29 0
29 30 -31 0
-29 31 0
-30 31 0
32 31 -22 0
-32 22 0
-31 22 0
9 33 0
-9 -33 0
10 34 0
-10 -34 0
2 35 0
-2 -35 0
-2 -33 37 0
2 -37 0
33 -37 0
-35 -33 38 0
35 -38 0
33 -38 0
-5 -9 39 0
5 -39 0
9 -39 0
-6 -9 40 0
6 -40 0
9 -40 0
-37 -34 46 0
37 -46 0
34 -46 0
-38 -10 44 0
38 -44 0
10 -44 0
-39 -34 42 0
39 -42 0
34 -42 0
-40 -10 41 0
40 -41 0
10 -41 0
41 42 -43 0
-41 43 0
-42 43 0
43 44 -45 0
-43 45 0
-44 45 0
46 45 -36 0
-46 36 0
-45 36 0
11 47 0
-11 -47 0
12 48 0
-12 -48 0
3 49 0
-3 -49 0
-3 -47 51 0
3 -51 0
47 -51 0
-49 -47 52 0
49 -52 0
47 -52 0
-5 -11 53 0
5 -53 0
11 -53 0
-6 -11 54 0
6 -54 0
11 -54 0
-51 -48 60 0
51 -60 0
48 -60 0
-52 -12 58 0
52 -58 0
12 -58 0
-53 -48 56 0
53 -56 0
48 -56 0
-54 -12 55 0
54 -55 0
12 -55 0
55 56 -57 0
-55 57 0
-56 57 0
57 58 -59 0
-57 59 0
-58 59 0
60 59 -50 0
-60 50 0
-59 50 0
13 61 0
-13 -61 0
14 62 0
-14 -62 0
4 63 0
-4 -63 0
-4 -61 65 0
4 -65 0
61 -65 0
-63 -61 66 0
63 -66 0
61 -66 0
-5 -13 67 0
5 -67 0
13 -67 0
-6 -13 68 0
6 -68 0
13 -68 0
-65 -62 74 0
65 -74 0
62 -74 0
-66 -14 72 0
66 -72 0
14 -72 0
-67 -62 70 0
67 -70 0
62 -70 0
-68 -14 69 0
68 -69 0
14 -69 0
69 70 -71 0
-69 71 0
-70 71 0
71 72 -73 0
-71 73 0
-72 73 0
74 73 -64 0
-74 64 0
-73 64 0
15 75 0
-15 -75 0
16 76 0
-16 -76 0
78 77 0
-78 -77 0
-78 -75 79 0
78 -79 0
75 -79 0
-77 -75 80 0
77 -80 0
75 -80 0
-5 -15 81 0
5 -81 0
15 -81 0
-6 -15 82 0
6 -82 0
15 -82 0
-79 -76 88 0
79 -88 0
76 -88 0
-80 -16 86 0
80 -86 0
16 -86 0
-81 -76 84 0
81 -84 0
76 -84 0
-82 -16 83 0
82 -83 0
16 -83 0
83 84 -85 0
-83 85 0
-84 85 0
85 86 -87 0
-85 87 0
-86 87 0
88 87 -17 0
-88 17 0
-87 17 0
-22 -36 -50 -64 -78 0
22 78 0
36 78 0
50 78 0
64 78 0
-1 0
-2 0
-3 0
-4 0
5 0
-6 0
17 0
c New duplicated circuit:
95 107 0
-95 -107 0
96 108 0
-96 -108 0
89 109 0
-89 -109 0
-89 -107 111 0
89 -111 0
107 -111 0
-109 -107 112 0
109 -112 0
107 -112 0
-93 -95 113 0
93 -113 0
95 -113 0
-94 -95 114 0
94 -114 0
95 -114 0
-111 -108 120 0
111 -120 0
108 -120 0
-112 -96 118 0
112 -118 0
96 -118 0
-113 -108 116 0
113 -116 0
108 -116 0
-114 -96 115 0
114 -115 0
96 -115 0
115 116 -117 0
-115 117 0
-116 117 0
117 118 -119 0
-117 119 0
-118 119 0
120 119 -110 0
-120 110 0
-119 110 0
97 121 0
-97 -121 0
98 122 0
-98 -122 0
90 123 0
-90 -123 0
-90 -121 125 0
90 -125 0
121 -125 0
-123 -121 126 0
123 -126 0
121 -126 0
-93 -97 127 0
93 -127 0
97 -127 0
-94 -97 128 0
94 -128 0
97 -128 0
-125 -122 134 0
125 -134 0
122 -134 0
-126 -98 132 0
126 -132 0
98 -132 0
-127 -122 130 0
127 -130 0
122 -130 0
-128 -98 129 0
128 -129 0
98 -129 0
129 130 -131 0
-129 131 0
-130 131 0
131 132 -133 0
-131 133 0
-132 133 0
134 133 -124 0
-134 124 0
-133 124 0
99 135 0
-99 -135 0
100 136 0
-100 -136 0
91 137 0
-91 -137 0
-91 -135 139 0
91 -139 0
135 -139 0
-137 -135 140 0
137 -140 0
135 -140 0
-93 -99 141 0
93 -141 0
99 -141 0
-94 -99 142 0
94 -142 0
99 -142 0
-139 -136 148 0
139 -148 0
136 -148 0
-140 -100 146 0
140 -146 0
100 -146 0
-141 -136 144 0
141 -144 0
136 -144 0
-142 -100 143 0
142 -143 0
100 -143 0
143 144 -145 0
-143 145 0
-144 145 0
145 146 -147 0
-145 147 0
-146 147 0
148 147 -138 0
-148 138 0
-147 138 0
101 149 0
-101 -149 0
102 150 0
-102 -150 0
92 151 0
-92 -151 0
-92 -149 153 0
92 -153 0
149 -153 0
-151 -149 154 0
151 -154 0
149 -154 0
-93 -101 155 0
93 -155 0
101 -155 0
-94 -101 156 0
94 -156 0
101 -156 0
-153 -150 162 0
153 -162 0
150 -162 0
-154 -102 160 0
154 -160 0
102 -160 0
-155 -150 158 0
155 -158 0
150 -158 0
-156 -102 157 0
156 -157 0
102 -157 0
157 158 -159 0
-157 159 0
-158 159 0
159 160 -161 0
-159 161 0
-160 161 0
162 161 -152 0
-162 152 0
-161 152 0
103 163 0
-103 -163 0
104 164 0
-104 -164 0
166 165 0
-166 -165 0
-166 -163 167 0
166 -167 0
163 -167 0
-165 -163 168 0
165 -168 0
163 -168 0
-93 -103 169 0
93 -169 0
103 -169 0
-94 -103 170 0
94 -170 0
103 -170 0
-167 -164 176 0
167 -176 0
164 -176 0
-168 -104 174 0
168 -174 0
104 -174 0
-169 -164 172 0
169 -172 0
164 -172 0
-170 -104 171 0
170 -171 0
104 -171 0
171 172 -173 0
-171 173 0
-172 173 0
173 174 -175 0
-173 175 0
-174 175 0
176 175 -105 0
-176 105 0
-175 105 0
-110 -124 -138 -152 -166 0
110 166 0
124 166 0
138 166 0
152 166 0
7 -95 0
-7 95 0
8 -96 0
-8 96 0
9 -97 0
-9 97 0
10 -98 0
-10 98 0
11 -99 0
-11 99 0
12 -100 0
-12 100 0
13 -101 0
-13 101 0
14 -102 0
-14 102 0
15 -103 0
-15 103 0
16 -104 0
-16 104 0
-89 0
90 0
91 0
-92 0
93 0
-94 0
105 0
c New duplicated circuit:
183 195 0
-183 -195 0
184 196 0
-184 -196 0
177 197 0
-177 -197 0
-177 -195 199 0
177 -199 0
195 -199 0
-197 -195 200 0
197 -200 0
195 -200 0
-181 -183 201 0
181 -201 0
183 -201 0
-182 -183 202 0
182 -202 0
183 -202 0
-199 -196 208 0
199 -208 0
196 -208 0
-200 -184 206 0
200 -206 0
184 -206 0
-201 -196 204 0
201 -204 0
196 -204 0
-202 -184 203 0
202 -203 0
184 -203 0
203 204 -205 0
-203 205 0
-204 205 0
205 206 -207 0
-205 207 0
-206 207 0
208 207 -198 0
-208 198 0
-207 198 0
185 209 0
-185 -209 0
186 210 0
-186 -210 0
178 211 0
-178 -211 0
-178 -209 213 0
178 -213 0
209 -213 0
-211 -209 214 0
211 -214 0
209 -214 0
-181 -185 215 0
181 -215 0
185 -215 0
-182 -185 216 0
182 -216 0
185 -216 0
-213 -210 222 0
213 -222 0
210 -222 0
-214 -186 220 0
214 -220 0
186 -220 0
-215 -210 218 0
215 -218 0
210 -218 0
-216 -186 217 0
216 -217 0
186 -217 0
217 218 -219 0
-217 219 0
-218 219 0
219 220 -221 0
-219 221 0
-220 221 0
222 221 -212 0
-222 212 0
-221 212 0
187 223 0
-187 -223 0
188 224 0
-188 -224 0
179 225 0
-179 -225 0
-179 -223 227 0
179 -227 0
223 -227 0
-225 -223 228 0
225 -228 0
223 -228 0
-181 -187 229 0
181 -229 0
187 -229 0
-182 -187 230 0
182 -230 0
187 -230 0
-227 -224 236 0
227 -236 0
224 -236 0
-228 -188 234 0
228 -234 0
188 -234 0
-229 -224 232 0
229 -232 0
224 -232 0
-230 -188 231 0
230 -231 0
188 -231 0
231 232 -233 0
-231 233 0
-232 233 0
233 234 -235 0
-233 235 0
-234 235 0
236 235 -226 0
-236 226 0
-235 226 0
189 237 0
-189 -237 0
190 238 0
-190 -238 0
180 239 0
-180 -239 0
-180 -237 241 0
180 -241 0
237 -241 0
-239 -237 242 0
239 -242 0
237 -242 0
-181 -189 243 0
181 -243 0
189 -243 0
-182 -189 244 0
182 -244 0
189 -244 0
-241 -238 250 0
241 -250 0
238 -250 0
-242 -190 248 0
242 -248 0
190 -248 0
-243 -238 246 0
243 -246 0
238 -246 0
-244 -190 245 0
244 -245 0
190 -245 0
245 246 -247 0
-245 247 0
-246 247 0
247 248 -249 0
-247 249 0
-248 249 0
250 249 -240 0
-250 240 0
-249 240 0
191 251 0
-191 -251 0
192 252 0
-192 -252 0
254 253 0
-254 -253 0
-254 -251 255 0
254 -255 0
251 -255 0
-253 -251 256 0
253 -256 0
251 -256 0
-181 -191 257 0
181 -257 0
191 -257 0
-182 -191 258 0
182 -258 0
191 -258 0
-255 -252 264 0
255 -264 0
252 -264 0
-256 -192 262 0
256 -262 0
192 -262 0
-257 -252 260 0
257 -260 0
252 -260 0
-258 -192 259 0
258 -259 0
192 -259 0
259 260 -261 0
-259 261 0
-260 261 0
261 262 -263 0
-261 263 0
-262 263 0
264 263 -193 0
-264 193 0
-263 193 0
-198 -212 -226 -240 -254 0
198 254 0
212 254 0
226 254 0
240 254 0
7 -183 0
-7 183 0
8 -184 0
-8 184 0
9 -185 0
-9 185 0
10 -186 0
-10 186 0
11 -187 0
-11 187 0
12 -188 0
-12 188 0
13 -189 0
-13 189 0
14 -190 0
-14 190 0
15 -191 0
-15 191 0
16 -192 0
-16 192 0
177 0
-178 0
-179 0
-180 0
181 0
-182 0
193 0
c New duplicated circuit:
271 283 0
-271 -283 0
272 284 0
-272 -284 0
265 285 0
-265 -285 0
-265 -283 287 0
265 -287 0
283 -287 0
-285 -283 288 0
285 -288 0
283 -288 0
-269 -271 289 0
269 -289 0
271 -289 0
-270 -271 290 0
270 -290 0
271 -290 0
-287 -284 296 0
287 -296 0
284 -296 0
-288 -272 294 0
288 -294 0
272 -294 0
-289 -284 292 0
289 -292 0
284 -292 0
-290 -272 291 0
290 -291 0
272 -291 0
291 292 -293 0
-291 293 0
-292 293 0
293 294 -295 0
-293 295 0
-294 295 0
296 295 -286 0
-296 286 0
-295 286 0
273 297 0
-273 -297 0
274 298 0
-274 -298 0
266 299 0
-266 -299 0
-266 -297 301 0
266 -301 0
297 -301 0
-299 -297 302 0
299 -302 0
297 -302 0
-269 -273 303 0
269 -303 0
273 -303 0
-270 -273 304 0
270 -304 0
273 -304 0
-301 -298 310 0
301 -310 0
298 -310 0
-302 -274 308 0
302 -308 0
274 -308 0
-303 -298 306 0
303 -306 0
298 -306 0
-304 -274 305 0
304 -305 0
274 -305 0
305 306 -307 0
-305 307 0
-306 307 0
307 308 -309 0
-307 309 0
-308 309 0
310 309 -300 0
-310 300 0
-309 300 0
275 311 0
-275 -311 0
276 312 0
-276 -312 0
267 313 0
-267 -313 0
-267 -311 315 0
267 -315 0
311 -315 0
-313 -311 316 0
313 -316 0
311 -316 0
-269 -275 317 0
269 -317 0
275 -317 0
-270 -275 318 0
270 -318 0
275 -318 0
-315 -312 324 0
315 -324 0
312 -324 0
-316 -276 322 0
316 -322 0
276 -322 0
-317 -312 320 0
317 -320 0
312 -320 0
-318 -276 319 0
318 -319 0
276 -319 0
319 320 -321 0
-319 321 0
-320 321 0
321 322 -323 0
-321 323 0
-322 323 0
324 323 -314 0
-324 314 0
-323 314 0
277 325 0
-277 -325 0
278 326 0
-278 -326 0
268 327 0
-268 -327 0
-268 -325 329 0
268 -329 0
325 -329 0
-327 -325 330 0
327 -330 0
325 -330 0
-269 -277 331 0
269 -331 0
277 -331 0
-270 -277 332 0
270 -332 0
277 -332 0
-329 -326 338 0
329 -338 0
326 -338 0
-330 -278 336 0
330 -336 0
278 -336 0
-331 -326 334 0
331 -334 0
326 -334 0
-332 -278 333 0
332 -333 0
278 -333 0
333 334 -335 0
-333 335 0
-334 335 0
335 336 -337 0
-335 337 0
-336 337 0
338 337 -328 0
-338 328 0
-337 328 0
279 339 0
-279 -339 0
280 340 0
-280 -340 0
342 341 0
-342 -341 0
-342 -339 343 0
342 -343 0
339 -343 0
-341 -339 344 0
341 -344 0
339 -344 0
-269 -279 345 0
269 -345 0
279 -345 0
-270 -279 346 0
270 -346 0
279 -346 0
-343 -340 352 0
343 -352 0
340 -352 0
-344 -280 350 0
344 -350 0
280 -350 0
-345 -340 348 0
345 -348 0
340 -348 0
-346 -280 347 0
346 -347 0
280 -347 0
347 348 -349 0
-347 349 0
-348 349 0
349 350 -351 0
-349 351 0
-350 351 0
352 351 -281 0
-352 281 0
-351 281 0
-286 -300 -314 -328 -342 0
286 342 0
300 342 0
314 342 0
328 342 0
7 -271 0
-7 271 0
8 -272 0
-8 272 0
9 -273 0
-9 273 0
10 -274 0
-10 274 0
11 -275 0
-11 275 0
12 -276 0
-12 276 0
13 -277 0
-13 277 0
14 -278 0
-14 278 0
15 -279 0
-15 279 0
16 -280 0
-16 280 0
265 0
266 0
267 0
268 0
269 0
-270 0
-281 0
c New duplicated circuit:
359 371 0
-359 -371 0
360 372 0
-360 -372 0
353 373 0
-353 -373 0
-353 -371 375 0
353 -375 0
371 -375 0
-373 -371 376 0
373 -376 0
371 -376 0
-357 -359 377 0
357 -377 0
359 -377 0
-358 -359 378 0
358 -378 0
359 -378 0
-375 -372 384 0
375 -384 0
372 -384 0
-376 -360 382 0
376 -382 0
360 -382 0
-377 -372 380 0
377 -380 0
372 -380 0
-378 -360 379 0
378 -379 0
360 -379 0
379 380 -381 0
-379 381 0
-380 381 0
381 382 -383 0
-381 383 0
-382 383 0
384 383 -374 0
-384 374 0
-383 374 0
361 385 0
-361 -385 0
362 386 0
-362 -386 0
354 387 0
-354 -387 0
-354 -385 389 0
354 -389 0
385 -389 0
-387 -385 390 0
387 -390 0
385 -390 0
-357 -361 391 0
357 -391 0
361 -391 0
-358 -361 392 0
358 -392 0
361 -392 0
-389 -386 398 0
389 -398 0
386 -398 0
-390 -362 396 0
390 -396 0
362 -396 0
-391 -386 394 0
391 -394 0
386 -394 0
-392 -362 393 0
392 -393 0
362 -393 0
393 394 -395 0
-393 395 0
-394 395 0
395 396 -397 0
-395 397 0
-396 397 0
398 397 -388 0
-398 388 0
-397 388 0
363 399 0
-363 -399 0
364 400 0
-364 -400 0
355 401 0
-355 -401 0
-355 -399 403 0
355 -403 0
399 -403 0
-401 -399 404 0
401 -404 0
399 -404 0
-357 -363 405 0
357 -405 0
363 -405 0
-358 -363 406 0
358 -406 0
363 -406 0
-403 -400 412 0
403 -412 0
400 -412 0
-404 -364 410 0
404 -410 0
364 -410 0
-405 -400 408 0
405 -408 0
400 -408 0
-406 -364 407 0
406 -407 0
364 -407 0
407 408 -409 0
-407 409 0
-408 409 0
409 410 -411 0
-409 411 0
-410 411 0
412 411 -402 0
-412 402 0
-411 402 0
365 413 0
-365 -413 0
366 414 0
-366 -414 0
356 415 0
-356 -415 0
-356 -413 417 0
356 -417 0
413 -417 0
-415 -413 418 0
415 -418 0
413 -418 0
-357 -365 419 0
357 -419 0
365 -419 0
-358 -365 420 0
358 -420 0
365 -420 0
-417 -414 426 0
417 -426 0
414 -426 0
-418 -366 424 0
418 -424 0
366 -424 0
-419 -414 422 0
419 -422 0
414 -422 0
-420 -366 421 0
420 -421 0
366 -421 0
421 422 -423 0
-421 423 0
-422 423 0
423 424 -425 0
-423 425 0
-424 425 0
426 425 -416 0
-426 416 0
-425 416 0
367 427 0
-367 -427 0
368 428 0
-368 -428 0
430 429 0
-430 -429 0
-430 -427 431 0
430 -431 0
427 -431 0
-429 -427 432 0
429 -432 0
427 -432 0
-357 -367 433 0
357 -433 0
367 -433 0
-358 -367 434 0
358 -434 0
367 -434 0
-431 -428 440 0
431 -440 0
428 -440 0
-432 -368 438 0
432 -438 0
368 -438 0
-433 -428 436 0
433 -436 0
428 -436 0
-434 -368 435 0
434 -435 0
368 -435 0
435 436 -437 0
-435 437 0
-436 437 0
437 438 -439 0
-437 439 0
-438 439 0
440 439 -369 0
-440 369 0
-439 369 0
-374 -388 -402 -416 -430 0
374 430 0
388 430 0
402 430 0
416 430 0
7 -359 0
-7 359 0
8 -360 0
-8 360 0
9 -361 0
-9 361 0
10 -362 0
-10 362 0
11 -363 0
-11 363 0
12 -364 0
-12 364 0
13 -365 0
-13 365 0
14 -366 0
-14 366 0
15 -367 0
-15 367 0
16 -368 0
-16 368 0
353 0
354 0
-355 0
-356 0
357 0
-358 0
369 0
c New duplicated circuit:
447 459 0
-447 -459 0
448 460 0
-448 -460 0
441 461 0
-441 -461 0
-441 -459 463 0
441 -463 0
459 -463 0
-461 -459 464 0
461 -464 0
459 -464 0
-445 -447 465 0
445 -465 0
447 -465 0
-446 -447 466 0
446 -466 0
447 -466 0
-463 -460 472 0
463 -472 0
460 -472 0
-464 -448 470 0
464 -470 0
448 -470 0
-465 -460 468 0
465 -468 0
460 -468 0
-466 -448 467 0
466 -467 0
448 -467 0
467 468 -469 0
-467 469 0
-468 469 0
469 470 -471 0
-469 471 0
-470 471 0
472 471 -462 0
-472 462 0
-471 462 0
449 473 0
-449 -473 0
450 474 0
-450 -474 0
442 475 0
-442 -475 0
-442 -473 477 0
442 -477 0
473 -477 0
-475 -473 478 0
475 -478 0
473 -478 0
-445 -449 479 0
445 -479 0
449 -479 0
-446 -449 480 0
446 -480 0
449 -480 0
-477 -474 486 0
477 -486 0
474 -486 0
-478 -450 484 0
478 -484 0
450 -484 0
-479 -474 482 0
479 -482 0
474 -482 0
-480 -450 481 0
480 -481 0
450 -481 0
481 482 -483 0
-481 483 0
-482 483 0
483 484 -485 0
-483 485 0
-484 485 0
486 485 -476 0
-486 476 0
-485 476 0
451 487 0
-451 -487 0
452 488 0
-452 -488 0
443 489 0
-443 -489 0
-443 -487 491 0
443 -491 0
487 -491 0
-489 -487 492 0
489 -492 0
487 -492 0
-445 -451 493 0
445 -493 0
451 -493 0
-446 -451 494 0
446 -494 0
451 -494 0
-491 -488 500 0
491 -500 0
488 -500 0
-492 -452 498 0
492 -498 0
452 -498 0
-493 -488 496 0
493 -496 0
488 -496 0
-494 -452 495 0
494 -495 0
452 -495 0
495 496 -497 0
-495 497 0
-496 497 0
497 498 -499 0
-497 499 0
-498 499 0
500 499 -490 0
-500 490 0
-499 490 0
453 501 0
-453 -501 0
454 502 0
-454 -502 0
444 503 0
-444 -503 0
-444 -501 505 0
444 -505 0
501 -505 0
-503 -501 506 0
503 -506 0
501 -506 0
-445 -453 507 0
445 -507 0
453 -507 0
-446 -453 508 0
446 -508 0
453 -508 0
-505 -502 514 0
505 -514 0
502 -514 0
-506 -454 512 0
506 -512 0
454 -512 0
-507 -502 510 0
507 -510 0
502 -510 0
-508 -454 509 0
508 -509 0
454 -509 0
509 510 -511 0
-509 511 0
-510 511 0
511 512 -513 0
-511 513 0
-512 513 0
514 513 -504 0
-514 504 0
-513 504 0
455 515 0
-455 -515 0
456 516 0
-456 -516 0
518 517 0
-518 -517 0
-518 -515 519 0
518 -519 0
515 -519 0
-517 -515 520 0
517 -520 0
515 -520 0
-445 -455 521 0
445 -521 0
455 -521 0
-446 -455 522 0
446 -522 0
455 -522 0
-519 -516 528 0
519 -528 0
516 -528 0
-520 -456 526 0
520 -526 0
456 -526 0
-521 -516 524 0
521 -524 0
516 -524 0
-522 -456 523 0
522 -523 0
456 -523 0
523 524 -525 0
-523 525 0
-524 525 0
525 526 -527 0
-525 527 0
-526 527 0
528 527 -457 0
-528 457 0
-527 457 0
-462 -476 -490 -504 -518 0
462 518 0
476 518 0
490 518 0
504 518 0
7 -447 0
-7 447 0
8 -448 0
-8 448 0
9 -449 0
-9 449 0
10 -450 0
-10 450 0
11 -451 0
-11 451 0
12 -452 0
-12 452 0
13 -453 0
-13 453 0
14 -454 0
-14 454 0
15 -455 0
-15 455 0
16 -456 0
-16 456 0
441 0
-442 0
443 0
-444 0
445 0
-446 0
457 0
c New duplicated circuit:
535 547 0
-535 -547 0
536 548 0
-536 -548 0
529 549 0
-529 -549 0
-529 -547 551 0
529 -551 0
547 -551 0
-549 -547 552 0
549 -552 0
547 -552 0
-533 -535 553 0
533 -553 0
535 -553 0
-534 -535 554 0
534 -554 0
535 -554 0
-551 -548 560 0
551 -560 0
548 -560 0
-552 -536 558 0
552 -558 0
536 -558 0
-553 -548 556 0
553 -556 0
548 -556 0
-554 -536 555 0
554 -555 0
536 -555 0
555 556 -557 0
-555 557 0
-556 557 0
557 558 -559 0
-557 559 0
-558 559 0
560 559 -550 0
-560 550 0
-559 550 0
537 561 0
-537 -561 0
538 562 0
-538 -562 0
530 563 0
-530 -563 0
-530 -561 565 0
530 -565 0
561 -565 0
-563 -561 566 0
563 -566 0
561 -566 0
-533 -537 567 0
533 -567 0
537 -567 0
-534 -537 568 0
534 -568 0
537 -568 0
-565 -562 574 0
565 -574 0
562 -574 0
-566 -538 572 0
566 -572 0
538 -572 0
-567 -562 570 0
567 -570 0
562 -570 0
-568 -538 569 0
568 -569 0
538 -569 0
569 570 -571 0
-569 571 0
-570 571 0
571 572 -573 0
-571 573 0
-572 573 0
574 573 -564 0
-574 564 0
-573 564 0
539 575 0
-539 -575 0
540 576 0
-540 -576 0
531 577 0
-531 -577 0
-531 -575 579 0
531 -579 0
575 -579 0
-577 -575 580 0
577 -580 0
575 -580 0
-533 -539 581 0
533 -581 0
539 -581 0
-534 -539 582 0
534 -582 0
539 -582 0
-579 -576 588 0
579 -588 0
576 -588 0
-580 -540 586 0
580 -586 0
540 -586 0
-581 -576 584 0
581 -584 0
576 -584 0
-582 -540 583 0
582 -583 0
540 -583 0
583 584 -585 0
-583 585 0
-584 585 0
585 586 -587 0
-585 587 0
-586 587 0
588 587 -578 0
-588 578 0
-587 578 0
541 589 0
-541 -589 0
542 590 0
-542 -590 0
532 591 0
-532 -591 0
-532 -589 593 0
532 -593 0
589 -593 0
-591 -589 594 0
591 -594 0
589 -594 0
-533 -541 595 0
533 -595 0
541 -595 0
-534 -541 596 0
534 -596 0
541 -596 0
-593 -590 602 0
593 -602 0
590 -602 0
-594 -542 600 0
594 -600 0
542 -600 0
-595 -590 598 0
595 -598 0
590 -598 0
-596 -542 597 0
596 -597 0
542 -597 0
597 598 -599 0
-597 599 0
-598 599 0
599 600 -601 0
-599 601 0
-600 601 0
602 601 -592 0
-602 592 0
-601 592 0
543 603 0
-543 -603 0
544 604 0
-544 -604 0
606 605 0
-606 -605 0
-606 -603 607 0
606 -607 0
603 -607 0
-605 -603 608 0
605 -608 0
603 -608 0
-533 -543 609 0
533 -609 0
543 -609 0
-534 -543 610 0
534 -610 0
543 -610 0
-607 -604 616 0
607 -616 0
604 -616 0
-608 -544 614 0
608 -614 0
544 -614 0
-609 -604 612 0
609 -612 0
604 -612 0
-610 -544 611 0
610 -611 0
544 -611 0
611 612 -613 0
-611 613 0
-612 613 0
613 614 -615 0
-613 615 0
-614 615 0
616 615 -545 0
-616 545 0
-615 545 0
-550 -564 -578 -592 -606 0
550 606 0
564 606 0
578 606 0
592 606 0
7 -535 0
-7 535 0
8 -536 0
-8 536 0
9 -537 0
-9 537 0
10 -538 0
-10 538 0
11 -539 0
-11 539 0
12 -540 0
-12 540 0
13 -541 0
-13 541 0
14 -542 0
-14 542 0
15 -543 0
-15 543 0
16 -544 0
-16 544 0
529 0
530 0
531 0
-532 0
533 0
-534 0
545 0
c New duplicated circuit:
623 635 0
-623 -635 0
624 636 0
-624 -636 0
617 637 0
-617 -637 0
-617 -635 639 0
617 -639 0
635 -639 0
-637 -635 640 0
637 -640 0
635 -640 0
-621 -623 641 0
621 -641 0
623 -641 0
-622 -623 642 0
622 -642 0
623 -642 0
-639 -636 648 0
639 -648 0
636 -648 0
-640 -624 646 0
640 -646 0
624 -646 0
-641 -636 644 0
641 -644 0
636 -644 0
-642 -624 643 0
642 -643 0
624 -643 0
643 644 -645 0
-643 645 0
-644 645 0
645 646 -647 0
-645 647 0
-646 647 0
648 647 -638 0
-648 638 0
-647 638 0
625 649 0
-625 -649 0
626 650 0
-626 -650 0
618 651 0
-618 -651 0
-618 -649 653 0
618 -653 0
649 -653 0
-651 -649 654 0
651 -654 0
649 -654 0
-621 -625 655 0
621 -655 0
625 -655 0
-622 -625 656 0
622 -656 0
625 -656 0
-653 -650 662 0
653 -662 0
650 -662 0
-654 -626 660 0
654 -660 0
626 -660 0
-655 -650 658 0
655 -658 0
650 -658 0
-656 -626 657 0
656 -657 0
626 -657 0
657 658 -659 0
-657 659 0
-658 659 0
659 660 -661 0
-659 661 0
-660 661 0
662 661 -652 0
-662 652 0
-661 652 0
627 663 0
-627 -663 0
628 664 0
-628 -664 0
619 665 0
-619 -665 0
-619 -663 667 0
619 -667 0
663 -667 0
-665 -663 668 0
665 -668 0
663 -668 0
-621 -627 669 0
621 -669 0
627 -669 0
-622 -627 670 0
622 -670 0
627 -670 0
-667 -664 676 0
667 -676 0
664 -676 0
-668 -628 674 0
668 -674 0
628 -674 0
-669 -664 672 0
669 -672 0
664 -672 0
-670 -628 671 0
670 -671 0
628 -671 0
671 672 -673 0
-671 673 0
-672 673 0
673 674 -675 0
-673 675 0
-674 675 0
676 675 -666 0
-676 666 0
-675 666 0
629 677 0
-629 -677 0
630 678 0
-630 -678 0
620 679 0
-620 -679 0
-620 -677 681 0
620 -681 0
677 -681 0
-679 -677 682 0
679 -682 0
677 -682 0
-621 -629 683 0
621 -683 0
629 -683 0
-622 -629 684 0
622 -684 0
629 -684 0
-681 -678 690 0
681 -690 0
678 -690 0
-682 -630 688 0
682 -688 0
630 -688 0
-683 -678 686 0
683 -686 0
678 -686 0
-684 -630 685 0
684 -685 0
630 -685 0
685 686 -687 0
-685 687 0
-686 687 0
687 688 -689 0
-687 689 0
-688 689 0
690 689 -680 0
-690 680 0
-689 680 0
631 691 0
-631 -691 0
632 692 0
-632 -692 0
694 693 0
-694 -693 0
-694 -691 695 0
694 -695 0
691 -695 0
-693 -691 696 0
693 -696 0
691 -696 0
-621 -631 697 0
621 -697 0
631 -697 0
-622 -631 698 0
622 -698 0
631 -698 0
-695 -692 704 0
695 -704 0
692 -704 0
-696 -632 702 0
696 -702 0
632 -702 0
-697 -692 700 0
697 -700 0
692 -700 0
-698 -632 699 0
698 -699 0
632 -699 0
699 700 -701 0
-699 701 0
-700 701 0
701 702 -703 0
-701 703 0
-702 703 0
704 703 -633 0
-704 633 0
-703 633 0
-638 -652 -666 -680 -694 0
638 694 0
652 694 0
666 694 0
680 694 0
7 -623 0
-7 623 0
8 -624 0
-8 624 0
9 -625 0
-9 625 0
10 -626 0
-10 626 0
11 -627 0
-11 627 0
12 -628 0
-12 628 0
13 -629 0
-13 629 0
14 -630 0
-14 630 0
15 -631 0
-15 631 0
16 -632 0
-16 632 0
-617 0
618 0
-619 0
620 0
621 0
-622 0
633 0
c New duplicated circuit:
711 723 0
-711 -723 0
712 724 0
-712 -724 0
705 725 0
-705 -725 0
-705 -723 727 0
705 -727 0
723 -727 0
-725 -723 728 0
725 -728 0
723 -728 0
-709 -711 729 0
709 -729 0
711 -729 0
-710 -711 730 0
710 -730 0
711 -730 0
-727 -724 736 0
727 -736 0
724 -736 0
-728 -712 734 0
728 -734 0
712 -734 0
-729 -724 732 0
729 -732 0
724 -732 0
-730 -712 731 0
730 -731 0
712 -731 0
731 732 -733 0
-731 733 0
-732 733 0
733 734 -735 0
-733 735 0
-734 735 0
736 735 -726 0
-736 726 0
-735 726 0
713 737 0
-713 -737 0
714 738 0
-714 -738 0
706 739 0
-706 -739 0
-706 -737 741 0
706 -741 0
737 -741 0
-739 -737 742 0
739 -742 0
737 -742 0
-709 -713 743 0
709 -743 0
713 -743 0
-710 -713 744 0
710 -744 0
713 -744 0
-741 -738 750 0
741 -750 0
738 -750 0
-742 -714 748 0
742 -748 0
714 -748 0
-743 -738 746 0
743 -746 0
738 -746 0
-744 -714 745 0
744 -745 0
714 -745 0
745 746 -747 0
-745 747 0
-746 747 0
747 748 -749 0
-747 749 0
-748 749 0
750 749 -740 0
-750 740 0
-749 740 0
715 751 0
-715 -751 0
716 752 0
-716 -752 0
707 753 0
-707 -753 0
-707 -751 755 0
707 -755 0
751 -755 0
-753 -751 756 0
753 -756 0
751 -756 0
-709 -715 757 0
709 -757 0
715 -757 0
-710 -715 758 0
710 -758 0
715 -758 0
-755 -752 764 0
755 -764 0
752 -764 0
-756 -716 762 0
756 -762 0
716 -762 0
-757 -752 760 0
757 -760 0
752 -760 0
-758 -716 759 0
758 -759 0
716 -759 0
759 760 -761 0
-759 761 0
-760 761 0
761 762 -763 0
-761 763 0
-762 763 0
764 763 -754 0
-764 754 0
-763 754 0
717 765 0
-717 -765 0
718 766 0
-718 -766 0
708 767 0
-708 -767 0
-708 -765 769 0
708 -769 0
765 -769 0
-767 -765 770 0
767 -770 0
765 -770 0
-709 -717 771 0
709 -771 0
717 -771 0
-710 -717 772 0
710 -772 0
717 -772 0
-769 -766 778 0
769 -778 0
766 -778 0
-770 -718 776 0
770 -776 0
718 -776 0
-771 -766 774 0
771 -774 0
766 -774 0
-772 -718 773 0
772 -773 0
718 -773 0
773 774 -775 0
-773 775 0
-774 775 0
775 776 -777 0
-775 777 0
-776 777 0
778 777 -768 0
-778 768 0
-777 768 0
719 779 0
-719 -779 0
720 780 0
-720 -780 0
782 781 0
-782 -781 0
-782 -779 783 0
782 -783 0
779 -783 0
-781 -779 784 0
781 -784 0
779 -784 0
-709 -719 785 0
709 -785 0
719 -785 0
-710 -719 786 0
710 -786 0
719 -786 0
-783 -780 792 0
783 -792 0
780 -792 0
-784 -720 790 0
784 -790 0
720 -790 0
-785 -780 788 0
785 -788 0
780 -788 0
-786 -720 787 0
786 -787 0
720 -787 0
787 788 -789 0
-787 789 0
-788 789 0
789 790 -791 0
-789 791 0
-790 791 0
792 791 -721 0
-792 721 0
-791 721 0
-726 -740 -754 -768 -782 0
726 782 0
740 782 0
754 782 0
768 782 0
7 -711 0
-7 711 0
8 -712 0
-8 712 0
9 -713 0
-9 713 0
10 -714 0
-10 714 0
11 -715 0
-11 715 0
12 -716 0
-12 716 0
13 -717 0
-13 717 0
14 -718 0
-14 718 0
15 -719 0
-15 719 0
16 -720 0
-16 720 0
705 0
-706 0
707 0
708 0
709 0
-710 0
721 0
c New duplicated circuit:
799 811 0
-799 -811 0
800 812 0
-800 -812 0
793 813 0
-793 -813 0
-793 -811 815 0
793 -815 0
811 -815 0
-813 -811 816 0
813 -816 0
811 -816 0
-797 -799 817 0
797 -817 0
799 -817 0
-798 -799 818 0
798 -818 0
799 -818 0
-815 -812 824 0
815 -824 0
812 -824 0
-816 -800 822 0
816 -822 0
800 -822 0
-817 -812 820 0
817 -820 0
812 -820 0
-818 -800 819 0
818 -819 0
800 -819 0
819 820 -821 0
-819 821 0
-820 821 0
821 822 -823 0
-821 823 0
-822 823 0
824 823 -814 0
-824 814 0
-823 814 0
801 825 0
-801 -825 0
802 826 0
-802 -826 0
794 827 0
-794 -827 0
-794 -825 829 0
794 -829 0
825 -829 0
-827 -825 830 0
827 -830 0
825 -830 0
-797 -801 831 0
797 -831 0
801 -831 0
-798 -801 832 0
798 -832 0
801 -832 0
-829 -826 838 0
829 -838 0
826 -838 0
-830 -802 836 0
830 -836 0
802 -836 0
-831 -826 834 0
831 -834 0
826 -834 0
-832 -802 833 0
832 -833 0
802 -833 0
833 834 -835 0
-833 835 0
-834 835 0
835 836 -837 0
-835 837 0
-836 837 0
838 837 -828 0
-838 828 0
-837 828 0
803 839 0
-803 -839 0
804 840 0
-804 -840 0
795 841 0
-795 -841 0
-795 -839 843 0
795 -843 0
839 -843 0
-841 -839 844 0
841 -844 0
839 -844 0
-797 -803 845 0
797 -845 0
803 -845 0
-798 -803 846 0
798 -846 0
803 -846 0
-843 -840 852 0
843 -852 0
840 -852 0
-844 -804 850 0
844 -850 0
804 -850 0
-845 -840 848 0
845 -848 0
840 -848 0
-846 -804 847 0
846 -847 0
804 -847 0
847 848 -849 0
-847 849 0
-848 849 0
849 850 -851 0
-849 851 0
-850 851 0
852 851 -842 0
-852 842 0
-851 842 0
805 853 0
-805 -853 0
806 854 0
-806 -854 0
796 855 0
-796 -855 0
-796 -853 857 0
796 -857 0
853 -857 0
-855 -853 858 0
855 -858 0
853 -858 0
-797 -805 859 0
797 -859 0
805 -859 0
-798 -805 860 0
798 -860 0
805 -860 0
-857 -854 866 0
857 -866 0
854 -866 0
-858 -806 864 0
858 -864 0
806 -864 0
-859 -854 862 0
859 -862 0
854 -862 0
-860 -806 861 0
860 -861 0
806 -861 0
861 862 -863 0
-861 863 0
-862 863 0
863 864 -865 0
-863 865 0
-864 865 0
866 865 -856 0
-866 856 0
-865 856 0
807 867 0
-807 -867 0
808 868 0
-808 -868 0
870 869 0
-870 -869 0
-870 -867 871 0
870 -871 0
867 -871 0
-869 -867 872 0
869 -872 0
867 -872 0
-797 -807 873 0
797 -873 0
807 -873 0
-798 -807 874 0
798 -874 0
807 -874 0
-871 -868 880 0
871 -880 0
868 -880 0
-872 -808 878 0
872 -878 0
808 -878 0
-873 -868 876 0
873 -876 0
868 -876 0
-874 -808 875 0
874 -875 0
808 -875 0
875 876 -877 0
-875 877 0
-876 877 0
877 878 -879 0
-877 879 0
-878 879 0
880 879 -809 0
-880 809 0
-879 809 0
-814 -828 -842 -856 -870 0
814 870 0
828 870 0
842 870 0
856 870 0
7 -799 0
-7 799 0
8 -800 0
-8 800 0
9 -801 0
-9 801 0
10 -802 0
-10 802 0
11 -803 0
-11 803 0
12 -804 0
-12 804 0
13 -805 0
-13 805 0
14 -806 0
-14 806 0
15 -807 0
-15 807 0
16 -808 0
-16 808 0
793 0
794 0
-795 0
796 0
797 0
-798 0
809 0
c New duplicated circuit:
887 899 0
-887 -899 0
888 900 0
-888 -900 0
881 901 0
-881 -901 0
-881 -899 903 0
881 -903 0
899 -903 0
-901 -899 904 0
901 -904 0
899 -904 0
-885 -887 905 0
885 -905 0
887 -905 0
-886 -887 906 0
886 -906 0
887 -906 0
-903 -900 912 0
903 -912 0
900 -912 0
-904 -888 910 0
904 -910 0
888 -910 0
-905 -900 908 0
905 -908 0
900 -908 0
-906 -888 907 0
906 -907 0
888 -907 0
907 908 -909 0
-907 909 0
-908 909 0
909 910 -911 0
-909 911 0
-910 911 0
912 911 -902 0
-912 902 0
-911 902 0
889 913 0
-889 -913 0
890 914 0
-890 -914 0
882 915 0
-882 -915 0
-882 -913 917 0
882 -917 0
913 -917 0
-915 -913 918 0
915 -918 0
913 -918 0
-885 -889 919 0
885 -919 0
889 -919 0
-886 -889 920 0
886 -920 0
889 -920 0
-917 -914 926 0
917 -926 0
914 -926 0
-918 -890 924 0
918 -924 0
890 -924 0
-919 -914 922 0
919 -922 0
914 -922 0
-920 -890 921 0
920 -921 0
890 -921 0
921 922 -923 0
-921 923 0
-922 923 0
923 924 -925 0
-923 925 0
-924 925 0
926 925 -916 0
-926 916 0
-925 916 0
891 927 0
-891 -927 0
892 928 0
-892 -928 0
883 929 0
-883 -929 0
-883 -927 931 0
883 -931 0
927 -931 0
-929 -927 932 0
929 -932 0
927 -932 0
-885 -891 933 0
885 -933 0
891 -933 0
-886 -891 934 0
886 -934 0
891 -934 0
-931 -928 940 0
931 -940 0
928 -940 0
-932 -892 938 0
932 -938 0
892 -938 0
-933 -928 936 0
933 -936 0
928 -936 0
-934 -892 935 0
934 -935 0
892 -935 0
935 936 -937 0
-935 937 0
-936 937 0
937 938 -939 0
-937 939 0
-938 939 0
940 939 -930 0
-940 930 0
-939 930 0
893 941 0
-893 -941 0
894 942 0
-894 -942 0
884 943 0
-884 -943 0
-884 -941 945 0
884 -945 0
941 -945 0
-943 -941 946 0
943 -946 0
941 -946 0
-885 -893 947 0
885 -947 0
893 -947 0
-886 -893 948 0
886 -948 0
893 -948 0
-945 -942 954 0
945 -954 0
942 -954 0
-946 -894 952 0
946 -952 0
894 -952 0
-947 -942 950 0
947 -950 0
942 -950 0
-948 -894 949 0
948 -949 0
894 -949 0
949 950 -951 0
-949 951 0
-950 951 0
951 952 -953 0
-951 953 0
-952 953 0
954 953 -944 0
-954 944 0
-953 944 0
895 955 0
-895 -955 0
896 956 0
-896 -956 0
958 957 0
-958 -957 0
-958 -955 959 0
958 -959 0
955 -959 0
-957 -955 960 0
957 -960 0
955 -960 0
-885 -895 961 0
885 -961 0
895 -961 0
-886 -895 962 0
886 -962 0
895 -962 0
-959 -956 968 0
959 -968 0
956 -968 0
-960 -896 966 0
960 -966 0
896 -966 0
-961 -956 964 0
961 -964 0
956 -964 0
-962 -896 963 0
962 -963 0
896 -963 0
963 964 -965 0
-963 965 0
-964 965 0
965 966 -967 0
-965 967 0
-966 967 0
968 967 -897 0
-968 897 0
-967 897 0
-902 -916 -930 -944 -958 0
902 958 0
916 958 0
930 958 0
944 958 0
7 -887 0
-7 887 0
8 -888 0
-8 888 0
9 -889 0
-9 889 0
10 -890 0
-10 890 0
11 -891 0
-11 891 0
12 -892 0
-12 892 0
13 -893 0
-13 893 0
14 -894 0
-14 894 0
15 -895 0
-15 895 0
16 -896 0
-16 896 0
-881 0
882 0
883 0
884 0
885 0
-886 0
897 0
